
  32   50
  15    9   14   13   13    8    6   16    6   10    0    0    9   10   10   10    9   18   11    8   10   13   16    6   17   16   18    4    4   17   14    7    0    0    0    0    0    0    0    0    0    0    0    0    0    0    0    0    0    0

   0   0   0   0   0   0   0   0   0   0   0   0   0   0   0   0   0   0   0   0   0   0   0   0   0   0   0   0   0   0   0   0   0   0   0   0   0   0   0   0   0   0   0   0   0   0   0   0   0   0   0  11 2 3 4 5 6 7 8 9 10 11 19 
   7   0   0   0   0   0   0   0   0   0   0   0   0   0   0   0   0   0   0   0   0   0   0   0   0   0   0   0   0   0   0   0   0   0   0   0   0   0   0   0   0   0   0   0   0   0   0   0   0   0   0   6 31 29 22 20 15 12 
   1   0   0   0   0   2   0   0   0   0   0   0   0   8   0   0   0   0   0   0   0   0   9   0   3   0   0   9   0   0   0   0   0   0   0   0   0   0   0   0   0   0   0   0   0   0   0   0   0   0   0   6 31 27 17 16 15 14 
   9   0   0   0   0   0   0   0   0   0   0   0   0   0   7   0   0   0   0   0   0   0   0   0   0   0   1   0   0   0   0   0   0   0   0   0   0   0   0   0   0   0   0   0   0   0   0   0   0   0   0   4 23 17 13 12 
   1   9   0   7   0   0   0   0   0   0   0   0   0   0   0   0   0   0   0   0   0   0   0   0   0   5   7   0   0   0   0   0   0   0   0   0   0   0   0   0   0   0   0   0   0   0   0   0   0   0   0   6 31 29 21 18 17 15 
   3   0   0   0   4   0   0   0   0   0  10   0   0   0   4   0   0   0   0   0   4   0   0   0   0   0   0   0   0   0   0   6   0   0   0   0   0   0   0   0   0   0   0   0   0   0   0   0   0   0   0   5 31 29 22 17 12 
   8   0   0   0   0   0   0   0   0   0   0   0   0   0   0   0   0   0   0   6   0   0   0   0   0   0   0   0   0   4   0   0   0   0   0   0   0   0   0   0   0   0   0   0   0   0   0   0   0   0   0   5 28 22 21 20 17 
   5   0   0   0   0   0   0   0   0   0   0   0   0   0   0   0   0   0   1   0   0   0   0   0   0   0   6   0   0   0   0   0   0   0   0   0   0   0   0   0   0   0   0   0   0   0   0   0   0   0   0   6 30 29 28 21 18 17 
   8   0   0   0   0   0   3   0   0   0   0   0   0   0   0   0   0   0   0   0   0   0   0   0   0   0   0   0   4   0   0   0   0   0   0   0   0   0   0   0   0   0   0   0   0   0   0   0   0   0   0   4 30 23 17 16 
   5   0   0   0   4   0   0   0   9   0   0   0   0   0   0   3   0   0   0   0   0   0   7   0   0   0   6   0   0   0   0   9   0   0   0   0   0   0   0   0   0   0   0   0   0   0   0   0   0   0   0   6 29 28 26 25 23 22 
   1  10   0   0   0   0   0   0   0   0   0   0   0   0   0   0   0   0   0   0   0   0   0   0   2   0   0   0   0   0   0   0   0   0   0   0   0   0   0   0   0   0   0   0   0   0   0   0   0   0   0   6 30 28 26 23 21 18 
  10   0   0   0   0   0   0   0   0   0   8   0   0   0   0   0   0   0   0   0   0   0   0   0   0   0   0   0   0   0   7   0   0   0   0   0   0   0   0   0   0   0   0   0   0   0   0   0   0   0   0   4 30 28 26 21 
  10   0   9   0  10   0   0   0   0   0   0   0   0   0   0   0   0   6   0   6   0   0   0   0   0   5   0   0   0   0   5   7   0   0   0   0   0   0   0   0   0   0   0   0   0   0   0   0   0   0   0   4 29 28 27 26 
   1   0   0   0   0   0   0   1   0   0   0   0   0   0   0   9   0   0   0   0   5   0   0   0   0   0   3   0   0   0  10   0   0   0   0   0   0   0   0   0   0   0   0   0   0   0   0   0   0   0   0   3 29 26 21 
   4   0   0   0   0   0   0   0   0   0   0   0   0   0   0   0   1   0   0   0   0   0   0   0   0   4   0   0   0   0   5   0   0   0   0   0   0   0   0   0   0   0   0   0   0   0   0   0   0   0   0   3 28 26 25 
   2   0   0   0   0   0   0   0   0   0   0   0   0   7   0   0   0   0   0   0   6   4  10   5   0   0   0   0   0   0   0   0   0   0   0   0   0   0   0   0   0   0   0   0   0   0   0   0   0   0   0   3 29 28 25 
   4   0   0   0   0   5   0   1   0   0   0   0   0   0   0   0   0   4   0   0   0   0   0   0   0   0   0   0   0   0   4  10   0   0   0   0   0   0   0   0   0   0   0   0   0   0   0   0   0   0   0   2 26 25 
   1   0   0   0   0   0   0   0   0   0   0   0   0   0   0   0   0   0   0   0   0   2   0   0   0   0   0   0   0   0   0   0   0   0   0   0   0   0   0   0   0   0   0   0   0   0   0   0   0   0   0   2 27 25 
   6   0   0  10   0   0   0   0   0   0   0   0   0   2   0   0   0   0   0   8   0   0   0   0   0   0   0   0   0   0   1   0   0   0   0   0   0   0   0   0   0   0   0   0   0   0   0   0   0   0   0   2 27 26 
   3   0   0   0   0   6   0   0   0   5   0   0   0   0   6   0   0   0   0   0   0   0   0   9   6   9   0   0   0   0   0   0   0   0   0   0   0   0   0   0   0   0   0   0   0   0   0   0   0   0   0   1 24 
   1   0   0   6   0   0   0   1   0   0   0   0   0   0   0   0   0   0   0   0   7   1   0   0   0   0   0   0   3   1   0   0   0   0   0   0   0   0   0   0   0   0   0   0   0   0   0   0   0   0   0   1 25 
   9   0   0   0   6   6   8   0   0   0   0   0   0   0   0   0   0   0   0   4   0   0   0   0   0   0   4   0   4   0   0   0   0   0   0   0   0   0   0   0   0   0   0   0   0   0   0   0   0   0   0   1 30 
   2   0   0   4   0   0   0   0   0   0   0   0   0   0   0   5   0   0   0   0   0   0   0   0   0   4   3   0   0   0   0   0   0   0   0   0   0   0   0   0   0   0   0   0   0   0   0   0   0   0   0   1 27 
   8   0   0   0   0   0   0   0   0   0   0   0   0   2   0   0   0   0   0   0   0   0   0   0   0   0   0   6   0   0   1   0   0   0   0   0   0   0   0   0   0   0   0   0   0   0   0   0   0   0   0   1 27 
   8   0   0   7   0   0   0   0   0   0   0   0   0   0   0   0   0   0   9   0   0   0   0   0   0   0   0   0   0   0   9   0   6   0   0   0   0   0   0   0   0   0   0   0   0   0   0   0   0   0   0   1 32
   2   0   0   3  10   0   0   0   0   0   0   0   0   0   0   0   0   1   0   0   0   0   0   8   0   5   0   9   0   0   0   0   0   0   0   0   0   0   0   0   0   0   0   0   0   0   0   0   0   0   0   1 32
  10   0   0   0   0   0   0   0   8   0   0   0   0   0   0   6   0   0   0   0   0   0   0   0   0   0   0   0   0   0   0   0   2   0   0   0   0   0   0   0   0   0   0   0   0   0   0   0   0   0   0   1 32
   4   0   0   0   0   0   0   6   7   0   0   0   0   0   0   5   0   0   0   0   1   0   0   0   0   0   0   6   0   0   0   0   0   0   0   0   0   0   0   0   0   0   0   0   0   0   0   0   0   0   0   1 32
   8   0   0   0   0   0   8   0   6   0   6   0   0   0   0   0   0   0   8   0   0   0   0   0   0   0   0   8   0   0   0   0   0   0   0   0   0   0   0   0   0   0   0   0   0   0   0   0   0   0   0   1 32
   6   3   0   0   0   0   0   0   0   6   2   0   0   0   0   0   3   9   6   0   0   0   0   0   1   0   9   0   0   0   0   0   0   0   0   0   0   0   0   0   0   0   0   0   0   0   0   0   0   0   0   1 32
   7   0   0   0   0   0   0   0   0   0   0   0   0   1   0   0  10   0   0   0   0   8   0   7   0   0   0   0   0   0   0   0   0   0   0   0   0   0   0   0   0   0   0   0   0   0   0   0   0   0   0   1 32
   0   0   0   0   0   0   0   0   0   0   0   0   0   0   0   0   0   0   0   0   0   0   0   0   0   0   0   0   0   0   0   0   0   0   0   0   0   0   0   0   0   0   0   0   0   0   0   0   0   0   0   0 
